p cnf 180 2358
1 2 3 4 5 6 7 8 9 10 0 
-1 -2 0 
-1 -3 0 
-1 -4 0 
-1 -5 0 
-1 -6 0 
-1 -7 0 
-1 -8 0 
-1 -9 0 
-1 -10 0 
-2 -3 0 
-2 -4 0 
-2 -5 0 
-2 -6 0 
-2 -7 0 
-2 -8 0 
-2 -9 0 
-2 -10 0 
-3 -4 0 
-3 -5 0 
-3 -6 0 
-3 -7 0 
-3 -8 0 
-3 -9 0 
-3 -10 0 
-4 -5 0 
-4 -6 0 
-4 -7 0 
-4 -8 0 
-4 -9 0 
-4 -10 0 
-5 -6 0 
-5 -7 0 
-5 -8 0 
-5 -9 0 
-5 -10 0 
-6 -7 0 
-6 -8 0 
-6 -9 0 
-6 -10 0 
-7 -8 0 
-7 -9 0 
-7 -10 0 
-8 -9 0 
-8 -10 0 
-9 -10 0 
-11 -1 0 
-12 -2 0 
-13 -3 0 
-14 -4 0 
-15 -5 0 
-16 -6 0 
-17 -7 0 
-18 -8 0 
-19 -9 0 
-20 -10 0 
-21 -1 0 
-22 -2 0 
-23 -3 0 
-24 -4 0 
-25 -5 0 
-26 -6 0 
-27 -7 0 
-28 -8 0 
-29 -9 0 
-30 -10 0 
-31 -1 0 
-32 -2 0 
-33 -3 0 
-34 -4 0 
-35 -5 0 
-36 -6 0 
-37 -7 0 
-38 -8 0 
-39 -9 0 
-40 -10 0 
-41 -1 0 
-42 -2 0 
-43 -3 0 
-44 -4 0 
-45 -5 0 
-46 -6 0 
-47 -7 0 
-48 -8 0 
-49 -9 0 
-50 -10 0 
-51 -1 0 
-52 -2 0 
-53 -3 0 
-54 -4 0 
-55 -5 0 
-56 -6 0 
-57 -7 0 
-58 -8 0 
-59 -9 0 
-60 -10 0 
-61 -1 0 
-62 -2 0 
-63 -3 0 
-64 -4 0 
-65 -5 0 
-66 -6 0 
-67 -7 0 
-68 -8 0 
-69 -9 0 
-70 -10 0 
-71 -1 0 
-72 -2 0 
-73 -3 0 
-74 -4 0 
-75 -5 0 
-76 -6 0 
-77 -7 0 
-78 -8 0 
-79 -9 0 
-80 -10 0 
-81 -1 0 
-82 -2 0 
-83 -3 0 
-84 -4 0 
-85 -5 0 
-86 -6 0 
-87 -7 0 
-88 -8 0 
-89 -9 0 
-90 -10 0 
-91 -1 0 
-92 -2 0 
-93 -3 0 
-94 -4 0 
-95 -5 0 
-96 -6 0 
-97 -7 0 
-98 -8 0 
-99 -9 0 
-100 -10 0 
-101 -1 0 
-102 -2 0 
-103 -3 0 
-104 -4 0 
-105 -5 0 
-106 -6 0 
-107 -7 0 
-108 -8 0 
-109 -9 0 
-110 -10 0 
-111 -1 0 
-112 -2 0 
-113 -3 0 
-114 -4 0 
-115 -5 0 
-116 -6 0 
-117 -7 0 
-118 -8 0 
-119 -9 0 
-120 -10 0 
-121 -1 0 
-122 -2 0 
-123 -3 0 
-124 -4 0 
-125 -5 0 
-126 -6 0 
-127 -7 0 
-128 -8 0 
-129 -9 0 
-130 -10 0 
-131 -1 0 
-132 -2 0 
-133 -3 0 
-134 -4 0 
-135 -5 0 
-136 -6 0 
-137 -7 0 
-138 -8 0 
-139 -9 0 
-140 -10 0 
-141 -1 0 
-142 -2 0 
-143 -3 0 
-144 -4 0 
-145 -5 0 
-146 -6 0 
-147 -7 0 
-148 -8 0 
-149 -9 0 
-150 -10 0 
-151 -1 0 
-152 -2 0 
-153 -3 0 
-154 -4 0 
-155 -5 0 
-156 -6 0 
-157 -7 0 
-158 -8 0 
-159 -9 0 
-160 -10 0 
-161 -1 0 
-162 -2 0 
-163 -3 0 
-164 -4 0 
-165 -5 0 
-166 -6 0 
-167 -7 0 
-168 -8 0 
-169 -9 0 
-170 -10 0 
-171 -1 0 
-172 -2 0 
-173 -3 0 
-174 -4 0 
-175 -5 0 
-176 -6 0 
-177 -7 0 
-178 -8 0 
-179 -9 0 
-180 -10 0 
11 12 13 14 15 16 17 18 19 20 0 
-11 -12 0 
-11 -13 0 
-11 -14 0 
-11 -15 0 
-11 -16 0 
-11 -17 0 
-11 -18 0 
-11 -19 0 
-11 -20 0 
-12 -13 0 
-12 -14 0 
-12 -15 0 
-12 -16 0 
-12 -17 0 
-12 -18 0 
-12 -19 0 
-12 -20 0 
-13 -14 0 
-13 -15 0 
-13 -16 0 
-13 -17 0 
-13 -18 0 
-13 -19 0 
-13 -20 0 
-14 -15 0 
-14 -16 0 
-14 -17 0 
-14 -18 0 
-14 -19 0 
-14 -20 0 
-15 -16 0 
-15 -17 0 
-15 -18 0 
-15 -19 0 
-15 -20 0 
-16 -17 0 
-16 -18 0 
-16 -19 0 
-16 -20 0 
-17 -18 0 
-17 -19 0 
-17 -20 0 
-18 -19 0 
-18 -20 0 
-19 -20 0 
-21 -11 0 
-22 -12 0 
-23 -13 0 
-24 -14 0 
-25 -15 0 
-26 -16 0 
-27 -17 0 
-28 -18 0 
-29 -19 0 
-30 -20 0 
-31 -11 0 
-32 -12 0 
-33 -13 0 
-34 -14 0 
-35 -15 0 
-36 -16 0 
-37 -17 0 
-38 -18 0 
-39 -19 0 
-40 -20 0 
-41 -11 0 
-42 -12 0 
-43 -13 0 
-44 -14 0 
-45 -15 0 
-46 -16 0 
-47 -17 0 
-48 -18 0 
-49 -19 0 
-50 -20 0 
-51 -11 0 
-52 -12 0 
-53 -13 0 
-54 -14 0 
-55 -15 0 
-56 -16 0 
-57 -17 0 
-58 -18 0 
-59 -19 0 
-60 -20 0 
-61 -11 0 
-62 -12 0 
-63 -13 0 
-64 -14 0 
-65 -15 0 
-66 -16 0 
-67 -17 0 
-68 -18 0 
-69 -19 0 
-70 -20 0 
-71 -11 0 
-72 -12 0 
-73 -13 0 
-74 -14 0 
-75 -15 0 
-76 -16 0 
-77 -17 0 
-78 -18 0 
-79 -19 0 
-80 -20 0 
-81 -11 0 
-82 -12 0 
-83 -13 0 
-84 -14 0 
-85 -15 0 
-86 -16 0 
-87 -17 0 
-88 -18 0 
-89 -19 0 
-90 -20 0 
-91 -11 0 
-92 -12 0 
-93 -13 0 
-94 -14 0 
-95 -15 0 
-96 -16 0 
-97 -17 0 
-98 -18 0 
-99 -19 0 
-100 -20 0 
-101 -11 0 
-102 -12 0 
-103 -13 0 
-104 -14 0 
-105 -15 0 
-106 -16 0 
-107 -17 0 
-108 -18 0 
-109 -19 0 
-110 -20 0 
-111 -11 0 
-112 -12 0 
-113 -13 0 
-114 -14 0 
-115 -15 0 
-116 -16 0 
-117 -17 0 
-118 -18 0 
-119 -19 0 
-120 -20 0 
-121 -11 0 
-122 -12 0 
-123 -13 0 
-124 -14 0 
-125 -15 0 
-126 -16 0 
-127 -17 0 
-128 -18 0 
-129 -19 0 
-130 -20 0 
-131 -11 0 
-132 -12 0 
-133 -13 0 
-134 -14 0 
-135 -15 0 
-136 -16 0 
-137 -17 0 
-138 -18 0 
-139 -19 0 
-140 -20 0 
-141 -11 0 
-142 -12 0 
-143 -13 0 
-144 -14 0 
-145 -15 0 
-146 -16 0 
-147 -17 0 
-148 -18 0 
-149 -19 0 
-150 -20 0 
-151 -11 0 
-152 -12 0 
-153 -13 0 
-154 -14 0 
-155 -15 0 
-156 -16 0 
-157 -17 0 
-158 -18 0 
-159 -19 0 
-160 -20 0 
-161 -11 0 
-162 -12 0 
-163 -13 0 
-164 -14 0 
-165 -15 0 
-166 -16 0 
-167 -17 0 
-168 -18 0 
-169 -19 0 
-170 -20 0 
-171 -11 0 
-172 -12 0 
-173 -13 0 
-174 -14 0 
-175 -15 0 
-176 -16 0 
-177 -17 0 
-178 -18 0 
-179 -19 0 
-180 -20 0 
21 22 23 24 25 26 27 28 29 30 0 
-21 -22 0 
-21 -23 0 
-21 -24 0 
-21 -25 0 
-21 -26 0 
-21 -27 0 
-21 -28 0 
-21 -29 0 
-21 -30 0 
-22 -23 0 
-22 -24 0 
-22 -25 0 
-22 -26 0 
-22 -27 0 
-22 -28 0 
-22 -29 0 
-22 -30 0 
-23 -24 0 
-23 -25 0 
-23 -26 0 
-23 -27 0 
-23 -28 0 
-23 -29 0 
-23 -30 0 
-24 -25 0 
-24 -26 0 
-24 -27 0 
-24 -28 0 
-24 -29 0 
-24 -30 0 
-25 -26 0 
-25 -27 0 
-25 -28 0 
-25 -29 0 
-25 -30 0 
-26 -27 0 
-26 -28 0 
-26 -29 0 
-26 -30 0 
-27 -28 0 
-27 -29 0 
-27 -30 0 
-28 -29 0 
-28 -30 0 
-29 -30 0 
-31 -21 0 
-32 -22 0 
-33 -23 0 
-34 -24 0 
-35 -25 0 
-36 -26 0 
-37 -27 0 
-38 -28 0 
-39 -29 0 
-40 -30 0 
-41 -21 0 
-42 -22 0 
-43 -23 0 
-44 -24 0 
-45 -25 0 
-46 -26 0 
-47 -27 0 
-48 -28 0 
-49 -29 0 
-50 -30 0 
-51 -21 0 
-52 -22 0 
-53 -23 0 
-54 -24 0 
-55 -25 0 
-56 -26 0 
-57 -27 0 
-58 -28 0 
-59 -29 0 
-60 -30 0 
-61 -21 0 
-62 -22 0 
-63 -23 0 
-64 -24 0 
-65 -25 0 
-66 -26 0 
-67 -27 0 
-68 -28 0 
-69 -29 0 
-70 -30 0 
-71 -21 0 
-72 -22 0 
-73 -23 0 
-74 -24 0 
-75 -25 0 
-76 -26 0 
-77 -27 0 
-78 -28 0 
-79 -29 0 
-80 -30 0 
-81 -21 0 
-82 -22 0 
-83 -23 0 
-84 -24 0 
-85 -25 0 
-86 -26 0 
-87 -27 0 
-88 -28 0 
-89 -29 0 
-90 -30 0 
-91 -21 0 
-92 -22 0 
-93 -23 0 
-94 -24 0 
-95 -25 0 
-96 -26 0 
-97 -27 0 
-98 -28 0 
-99 -29 0 
-100 -30 0 
-101 -21 0 
-102 -22 0 
-103 -23 0 
-104 -24 0 
-105 -25 0 
-106 -26 0 
-107 -27 0 
-108 -28 0 
-109 -29 0 
-110 -30 0 
-111 -21 0 
-112 -22 0 
-113 -23 0 
-114 -24 0 
-115 -25 0 
-116 -26 0 
-117 -27 0 
-118 -28 0 
-119 -29 0 
-120 -30 0 
-121 -21 0 
-122 -22 0 
-123 -23 0 
-124 -24 0 
-125 -25 0 
-126 -26 0 
-127 -27 0 
-128 -28 0 
-129 -29 0 
-130 -30 0 
-131 -21 0 
-132 -22 0 
-133 -23 0 
-134 -24 0 
-135 -25 0 
-136 -26 0 
-137 -27 0 
-138 -28 0 
-139 -29 0 
-140 -30 0 
-141 -21 0 
-142 -22 0 
-143 -23 0 
-144 -24 0 
-145 -25 0 
-146 -26 0 
-147 -27 0 
-148 -28 0 
-149 -29 0 
-150 -30 0 
-151 -21 0 
-152 -22 0 
-153 -23 0 
-154 -24 0 
-155 -25 0 
-156 -26 0 
-157 -27 0 
-158 -28 0 
-159 -29 0 
-160 -30 0 
-161 -21 0 
-162 -22 0 
-163 -23 0 
-164 -24 0 
-165 -25 0 
-166 -26 0 
-167 -27 0 
-168 -28 0 
-169 -29 0 
-170 -30 0 
-171 -21 0 
-172 -22 0 
-173 -23 0 
-174 -24 0 
-175 -25 0 
-176 -26 0 
-177 -27 0 
-178 -28 0 
-179 -29 0 
-180 -30 0 
31 32 33 34 35 36 37 38 39 40 0 
-31 -32 0 
-31 -33 0 
-31 -34 0 
-31 -35 0 
-31 -36 0 
-31 -37 0 
-31 -38 0 
-31 -39 0 
-31 -40 0 
-32 -33 0 
-32 -34 0 
-32 -35 0 
-32 -36 0 
-32 -37 0 
-32 -38 0 
-32 -39 0 
-32 -40 0 
-33 -34 0 
-33 -35 0 
-33 -36 0 
-33 -37 0 
-33 -38 0 
-33 -39 0 
-33 -40 0 
-34 -35 0 
-34 -36 0 
-34 -37 0 
-34 -38 0 
-34 -39 0 
-34 -40 0 
-35 -36 0 
-35 -37 0 
-35 -38 0 
-35 -39 0 
-35 -40 0 
-36 -37 0 
-36 -38 0 
-36 -39 0 
-36 -40 0 
-37 -38 0 
-37 -39 0 
-37 -40 0 
-38 -39 0 
-38 -40 0 
-39 -40 0 
-41 -31 0 
-42 -32 0 
-43 -33 0 
-44 -34 0 
-45 -35 0 
-46 -36 0 
-47 -37 0 
-48 -38 0 
-49 -39 0 
-50 -40 0 
-51 -31 0 
-52 -32 0 
-53 -33 0 
-54 -34 0 
-55 -35 0 
-56 -36 0 
-57 -37 0 
-58 -38 0 
-59 -39 0 
-60 -40 0 
-61 -31 0 
-62 -32 0 
-63 -33 0 
-64 -34 0 
-65 -35 0 
-66 -36 0 
-67 -37 0 
-68 -38 0 
-69 -39 0 
-70 -40 0 
-71 -31 0 
-72 -32 0 
-73 -33 0 
-74 -34 0 
-75 -35 0 
-76 -36 0 
-77 -37 0 
-78 -38 0 
-79 -39 0 
-80 -40 0 
-81 -31 0 
-82 -32 0 
-83 -33 0 
-84 -34 0 
-85 -35 0 
-86 -36 0 
-87 -37 0 
-88 -38 0 
-89 -39 0 
-90 -40 0 
-91 -31 0 
-92 -32 0 
-93 -33 0 
-94 -34 0 
-95 -35 0 
-96 -36 0 
-97 -37 0 
-98 -38 0 
-99 -39 0 
-100 -40 0 
-101 -31 0 
-102 -32 0 
-103 -33 0 
-104 -34 0 
-105 -35 0 
-106 -36 0 
-107 -37 0 
-108 -38 0 
-109 -39 0 
-110 -40 0 
-111 -31 0 
-112 -32 0 
-113 -33 0 
-114 -34 0 
-115 -35 0 
-116 -36 0 
-117 -37 0 
-118 -38 0 
-119 -39 0 
-120 -40 0 
-121 -31 0 
-122 -32 0 
-123 -33 0 
-124 -34 0 
-125 -35 0 
-126 -36 0 
-127 -37 0 
-128 -38 0 
-129 -39 0 
-130 -40 0 
-131 -31 0 
-132 -32 0 
-133 -33 0 
-134 -34 0 
-135 -35 0 
-136 -36 0 
-137 -37 0 
-138 -38 0 
-139 -39 0 
-140 -40 0 
-141 -31 0 
-142 -32 0 
-143 -33 0 
-144 -34 0 
-145 -35 0 
-146 -36 0 
-147 -37 0 
-148 -38 0 
-149 -39 0 
-150 -40 0 
-151 -31 0 
-152 -32 0 
-153 -33 0 
-154 -34 0 
-155 -35 0 
-156 -36 0 
-157 -37 0 
-158 -38 0 
-159 -39 0 
-160 -40 0 
-161 -31 0 
-162 -32 0 
-163 -33 0 
-164 -34 0 
-165 -35 0 
-166 -36 0 
-167 -37 0 
-168 -38 0 
-169 -39 0 
-170 -40 0 
-171 -31 0 
-172 -32 0 
-173 -33 0 
-174 -34 0 
-175 -35 0 
-176 -36 0 
-177 -37 0 
-178 -38 0 
-179 -39 0 
-180 -40 0 
41 42 43 44 45 46 47 48 49 50 0 
-41 -42 0 
-41 -43 0 
-41 -44 0 
-41 -45 0 
-41 -46 0 
-41 -47 0 
-41 -48 0 
-41 -49 0 
-41 -50 0 
-42 -43 0 
-42 -44 0 
-42 -45 0 
-42 -46 0 
-42 -47 0 
-42 -48 0 
-42 -49 0 
-42 -50 0 
-43 -44 0 
-43 -45 0 
-43 -46 0 
-43 -47 0 
-43 -48 0 
-43 -49 0 
-43 -50 0 
-44 -45 0 
-44 -46 0 
-44 -47 0 
-44 -48 0 
-44 -49 0 
-44 -50 0 
-45 -46 0 
-45 -47 0 
-45 -48 0 
-45 -49 0 
-45 -50 0 
-46 -47 0 
-46 -48 0 
-46 -49 0 
-46 -50 0 
-47 -48 0 
-47 -49 0 
-47 -50 0 
-48 -49 0 
-48 -50 0 
-49 -50 0 
-51 -41 0 
-52 -42 0 
-53 -43 0 
-54 -44 0 
-55 -45 0 
-56 -46 0 
-57 -47 0 
-58 -48 0 
-59 -49 0 
-60 -50 0 
-61 -41 0 
-62 -42 0 
-63 -43 0 
-64 -44 0 
-65 -45 0 
-66 -46 0 
-67 -47 0 
-68 -48 0 
-69 -49 0 
-70 -50 0 
-71 -41 0 
-72 -42 0 
-73 -43 0 
-74 -44 0 
-75 -45 0 
-76 -46 0 
-77 -47 0 
-78 -48 0 
-79 -49 0 
-80 -50 0 
-81 -41 0 
-82 -42 0 
-83 -43 0 
-84 -44 0 
-85 -45 0 
-86 -46 0 
-87 -47 0 
-88 -48 0 
-89 -49 0 
-90 -50 0 
-91 -41 0 
-92 -42 0 
-93 -43 0 
-94 -44 0 
-95 -45 0 
-96 -46 0 
-97 -47 0 
-98 -48 0 
-99 -49 0 
-100 -50 0 
-101 -41 0 
-102 -42 0 
-103 -43 0 
-104 -44 0 
-105 -45 0 
-106 -46 0 
-107 -47 0 
-108 -48 0 
-109 -49 0 
-110 -50 0 
-111 -41 0 
-112 -42 0 
-113 -43 0 
-114 -44 0 
-115 -45 0 
-116 -46 0 
-117 -47 0 
-118 -48 0 
-119 -49 0 
-120 -50 0 
-121 -41 0 
-122 -42 0 
-123 -43 0 
-124 -44 0 
-125 -45 0 
-126 -46 0 
-127 -47 0 
-128 -48 0 
-129 -49 0 
-130 -50 0 
-131 -41 0 
-132 -42 0 
-133 -43 0 
-134 -44 0 
-135 -45 0 
-136 -46 0 
-137 -47 0 
-138 -48 0 
-139 -49 0 
-140 -50 0 
-141 -41 0 
-142 -42 0 
-143 -43 0 
-144 -44 0 
-145 -45 0 
-146 -46 0 
-147 -47 0 
-148 -48 0 
-149 -49 0 
-150 -50 0 
-151 -41 0 
-152 -42 0 
-153 -43 0 
-154 -44 0 
-155 -45 0 
-156 -46 0 
-157 -47 0 
-158 -48 0 
-159 -49 0 
-160 -50 0 
-161 -41 0 
-162 -42 0 
-163 -43 0 
-164 -44 0 
-165 -45 0 
-166 -46 0 
-167 -47 0 
-168 -48 0 
-169 -49 0 
-170 -50 0 
-171 -41 0 
-172 -42 0 
-173 -43 0 
-174 -44 0 
-175 -45 0 
-176 -46 0 
-177 -47 0 
-178 -48 0 
-179 -49 0 
-180 -50 0 
51 52 53 54 55 56 57 58 59 60 0 
-51 -52 0 
-51 -53 0 
-51 -54 0 
-51 -55 0 
-51 -56 0 
-51 -57 0 
-51 -58 0 
-51 -59 0 
-51 -60 0 
-52 -53 0 
-52 -54 0 
-52 -55 0 
-52 -56 0 
-52 -57 0 
-52 -58 0 
-52 -59 0 
-52 -60 0 
-53 -54 0 
-53 -55 0 
-53 -56 0 
-53 -57 0 
-53 -58 0 
-53 -59 0 
-53 -60 0 
-54 -55 0 
-54 -56 0 
-54 -57 0 
-54 -58 0 
-54 -59 0 
-54 -60 0 
-55 -56 0 
-55 -57 0 
-55 -58 0 
-55 -59 0 
-55 -60 0 
-56 -57 0 
-56 -58 0 
-56 -59 0 
-56 -60 0 
-57 -58 0 
-57 -59 0 
-57 -60 0 
-58 -59 0 
-58 -60 0 
-59 -60 0 
-61 -51 0 
-62 -52 0 
-63 -53 0 
-64 -54 0 
-65 -55 0 
-66 -56 0 
-67 -57 0 
-68 -58 0 
-69 -59 0 
-70 -60 0 
-71 -51 0 
-72 -52 0 
-73 -53 0 
-74 -54 0 
-75 -55 0 
-76 -56 0 
-77 -57 0 
-78 -58 0 
-79 -59 0 
-80 -60 0 
-81 -51 0 
-82 -52 0 
-83 -53 0 
-84 -54 0 
-85 -55 0 
-86 -56 0 
-87 -57 0 
-88 -58 0 
-89 -59 0 
-90 -60 0 
-91 -51 0 
-92 -52 0 
-93 -53 0 
-94 -54 0 
-95 -55 0 
-96 -56 0 
-97 -57 0 
-98 -58 0 
-99 -59 0 
-100 -60 0 
-101 -51 0 
-102 -52 0 
-103 -53 0 
-104 -54 0 
-105 -55 0 
-106 -56 0 
-107 -57 0 
-108 -58 0 
-109 -59 0 
-110 -60 0 
-111 -51 0 
-112 -52 0 
-113 -53 0 
-114 -54 0 
-115 -55 0 
-116 -56 0 
-117 -57 0 
-118 -58 0 
-119 -59 0 
-120 -60 0 
-121 -51 0 
-122 -52 0 
-123 -53 0 
-124 -54 0 
-125 -55 0 
-126 -56 0 
-127 -57 0 
-128 -58 0 
-129 -59 0 
-130 -60 0 
-131 -51 0 
-132 -52 0 
-133 -53 0 
-134 -54 0 
-135 -55 0 
-136 -56 0 
-137 -57 0 
-138 -58 0 
-139 -59 0 
-140 -60 0 
-141 -51 0 
-142 -52 0 
-143 -53 0 
-144 -54 0 
-145 -55 0 
-146 -56 0 
-147 -57 0 
-148 -58 0 
-149 -59 0 
-150 -60 0 
-151 -51 0 
-152 -52 0 
-153 -53 0 
-154 -54 0 
-155 -55 0 
-156 -56 0 
-157 -57 0 
-158 -58 0 
-159 -59 0 
-160 -60 0 
-161 -51 0 
-162 -52 0 
-163 -53 0 
-164 -54 0 
-165 -55 0 
-166 -56 0 
-167 -57 0 
-168 -58 0 
-169 -59 0 
-170 -60 0 
-171 -51 0 
-172 -52 0 
-173 -53 0 
-174 -54 0 
-175 -55 0 
-176 -56 0 
-177 -57 0 
-178 -58 0 
-179 -59 0 
-180 -60 0 
61 62 63 64 65 66 67 68 69 70 0 
-61 -62 0 
-61 -63 0 
-61 -64 0 
-61 -65 0 
-61 -66 0 
-61 -67 0 
-61 -68 0 
-61 -69 0 
-61 -70 0 
-62 -63 0 
-62 -64 0 
-62 -65 0 
-62 -66 0 
-62 -67 0 
-62 -68 0 
-62 -69 0 
-62 -70 0 
-63 -64 0 
-63 -65 0 
-63 -66 0 
-63 -67 0 
-63 -68 0 
-63 -69 0 
-63 -70 0 
-64 -65 0 
-64 -66 0 
-64 -67 0 
-64 -68 0 
-64 -69 0 
-64 -70 0 
-65 -66 0 
-65 -67 0 
-65 -68 0 
-65 -69 0 
-65 -70 0 
-66 -67 0 
-66 -68 0 
-66 -69 0 
-66 -70 0 
-67 -68 0 
-67 -69 0 
-67 -70 0 
-68 -69 0 
-68 -70 0 
-69 -70 0 
-71 -61 0 
-72 -62 0 
-73 -63 0 
-74 -64 0 
-75 -65 0 
-76 -66 0 
-77 -67 0 
-78 -68 0 
-79 -69 0 
-80 -70 0 
-81 -61 0 
-82 -62 0 
-83 -63 0 
-84 -64 0 
-85 -65 0 
-86 -66 0 
-87 -67 0 
-88 -68 0 
-89 -69 0 
-90 -70 0 
-91 -61 0 
-92 -62 0 
-93 -63 0 
-94 -64 0 
-95 -65 0 
-96 -66 0 
-97 -67 0 
-98 -68 0 
-99 -69 0 
-100 -70 0 
-101 -61 0 
-102 -62 0 
-103 -63 0 
-104 -64 0 
-105 -65 0 
-106 -66 0 
-107 -67 0 
-108 -68 0 
-109 -69 0 
-110 -70 0 
-111 -61 0 
-112 -62 0 
-113 -63 0 
-114 -64 0 
-115 -65 0 
-116 -66 0 
-117 -67 0 
-118 -68 0 
-119 -69 0 
-120 -70 0 
-121 -61 0 
-122 -62 0 
-123 -63 0 
-124 -64 0 
-125 -65 0 
-126 -66 0 
-127 -67 0 
-128 -68 0 
-129 -69 0 
-130 -70 0 
-131 -61 0 
-132 -62 0 
-133 -63 0 
-134 -64 0 
-135 -65 0 
-136 -66 0 
-137 -67 0 
-138 -68 0 
-139 -69 0 
-140 -70 0 
-141 -61 0 
-142 -62 0 
-143 -63 0 
-144 -64 0 
-145 -65 0 
-146 -66 0 
-147 -67 0 
-148 -68 0 
-149 -69 0 
-150 -70 0 
-151 -61 0 
-152 -62 0 
-153 -63 0 
-154 -64 0 
-155 -65 0 
-156 -66 0 
-157 -67 0 
-158 -68 0 
-159 -69 0 
-160 -70 0 
-161 -61 0 
-162 -62 0 
-163 -63 0 
-164 -64 0 
-165 -65 0 
-166 -66 0 
-167 -67 0 
-168 -68 0 
-169 -69 0 
-170 -70 0 
-171 -61 0 
-172 -62 0 
-173 -63 0 
-174 -64 0 
-175 -65 0 
-176 -66 0 
-177 -67 0 
-178 -68 0 
-179 -69 0 
-180 -70 0 
71 72 73 74 75 76 77 78 79 80 0 
-71 -72 0 
-71 -73 0 
-71 -74 0 
-71 -75 0 
-71 -76 0 
-71 -77 0 
-71 -78 0 
-71 -79 0 
-71 -80 0 
-72 -73 0 
-72 -74 0 
-72 -75 0 
-72 -76 0 
-72 -77 0 
-72 -78 0 
-72 -79 0 
-72 -80 0 
-73 -74 0 
-73 -75 0 
-73 -76 0 
-73 -77 0 
-73 -78 0 
-73 -79 0 
-73 -80 0 
-74 -75 0 
-74 -76 0 
-74 -77 0 
-74 -78 0 
-74 -79 0 
-74 -80 0 
-75 -76 0 
-75 -77 0 
-75 -78 0 
-75 -79 0 
-75 -80 0 
-76 -77 0 
-76 -78 0 
-76 -79 0 
-76 -80 0 
-77 -78 0 
-77 -79 0 
-77 -80 0 
-78 -79 0 
-78 -80 0 
-79 -80 0 
-81 -71 0 
-82 -72 0 
-83 -73 0 
-84 -74 0 
-85 -75 0 
-86 -76 0 
-87 -77 0 
-88 -78 0 
-89 -79 0 
-90 -80 0 
-91 -71 0 
-92 -72 0 
-93 -73 0 
-94 -74 0 
-95 -75 0 
-96 -76 0 
-97 -77 0 
-98 -78 0 
-99 -79 0 
-100 -80 0 
-101 -71 0 
-102 -72 0 
-103 -73 0 
-104 -74 0 
-105 -75 0 
-106 -76 0 
-107 -77 0 
-108 -78 0 
-109 -79 0 
-110 -80 0 
-111 -71 0 
-112 -72 0 
-113 -73 0 
-114 -74 0 
-115 -75 0 
-116 -76 0 
-117 -77 0 
-118 -78 0 
-119 -79 0 
-120 -80 0 
-121 -71 0 
-122 -72 0 
-123 -73 0 
-124 -74 0 
-125 -75 0 
-126 -76 0 
-127 -77 0 
-128 -78 0 
-129 -79 0 
-130 -80 0 
-131 -71 0 
-132 -72 0 
-133 -73 0 
-134 -74 0 
-135 -75 0 
-136 -76 0 
-137 -77 0 
-138 -78 0 
-139 -79 0 
-140 -80 0 
-141 -71 0 
-142 -72 0 
-143 -73 0 
-144 -74 0 
-145 -75 0 
-146 -76 0 
-147 -77 0 
-148 -78 0 
-149 -79 0 
-150 -80 0 
-151 -71 0 
-152 -72 0 
-153 -73 0 
-154 -74 0 
-155 -75 0 
-156 -76 0 
-157 -77 0 
-158 -78 0 
-159 -79 0 
-160 -80 0 
-161 -71 0 
-162 -72 0 
-163 -73 0 
-164 -74 0 
-165 -75 0 
-166 -76 0 
-167 -77 0 
-168 -78 0 
-169 -79 0 
-170 -80 0 
-171 -71 0 
-172 -72 0 
-173 -73 0 
-174 -74 0 
-175 -75 0 
-176 -76 0 
-177 -77 0 
-178 -78 0 
-179 -79 0 
-180 -80 0 
81 82 83 84 85 86 87 88 89 90 0 
-81 -82 0 
-81 -83 0 
-81 -84 0 
-81 -85 0 
-81 -86 0 
-81 -87 0 
-81 -88 0 
-81 -89 0 
-81 -90 0 
-82 -83 0 
-82 -84 0 
-82 -85 0 
-82 -86 0 
-82 -87 0 
-82 -88 0 
-82 -89 0 
-82 -90 0 
-83 -84 0 
-83 -85 0 
-83 -86 0 
-83 -87 0 
-83 -88 0 
-83 -89 0 
-83 -90 0 
-84 -85 0 
-84 -86 0 
-84 -87 0 
-84 -88 0 
-84 -89 0 
-84 -90 0 
-85 -86 0 
-85 -87 0 
-85 -88 0 
-85 -89 0 
-85 -90 0 
-86 -87 0 
-86 -88 0 
-86 -89 0 
-86 -90 0 
-87 -88 0 
-87 -89 0 
-87 -90 0 
-88 -89 0 
-88 -90 0 
-89 -90 0 
-91 -81 0 
-92 -82 0 
-93 -83 0 
-94 -84 0 
-95 -85 0 
-96 -86 0 
-97 -87 0 
-98 -88 0 
-99 -89 0 
-100 -90 0 
-101 -81 0 
-102 -82 0 
-103 -83 0 
-104 -84 0 
-105 -85 0 
-106 -86 0 
-107 -87 0 
-108 -88 0 
-109 -89 0 
-110 -90 0 
-111 -81 0 
-112 -82 0 
-113 -83 0 
-114 -84 0 
-115 -85 0 
-116 -86 0 
-117 -87 0 
-118 -88 0 
-119 -89 0 
-120 -90 0 
-121 -81 0 
-122 -82 0 
-123 -83 0 
-124 -84 0 
-125 -85 0 
-126 -86 0 
-127 -87 0 
-128 -88 0 
-129 -89 0 
-130 -90 0 
-131 -81 0 
-132 -82 0 
-133 -83 0 
-134 -84 0 
-135 -85 0 
-136 -86 0 
-137 -87 0 
-138 -88 0 
-139 -89 0 
-140 -90 0 
-141 -81 0 
-142 -82 0 
-143 -83 0 
-144 -84 0 
-145 -85 0 
-146 -86 0 
-147 -87 0 
-148 -88 0 
-149 -89 0 
-150 -90 0 
-151 -81 0 
-152 -82 0 
-153 -83 0 
-154 -84 0 
-155 -85 0 
-156 -86 0 
-157 -87 0 
-158 -88 0 
-159 -89 0 
-160 -90 0 
-161 -81 0 
-162 -82 0 
-163 -83 0 
-164 -84 0 
-165 -85 0 
-166 -86 0 
-167 -87 0 
-168 -88 0 
-169 -89 0 
-170 -90 0 
-171 -81 0 
-172 -82 0 
-173 -83 0 
-174 -84 0 
-175 -85 0 
-176 -86 0 
-177 -87 0 
-178 -88 0 
-179 -89 0 
-180 -90 0 
91 92 93 94 95 96 97 98 99 100 0 
-91 -92 0 
-91 -93 0 
-91 -94 0 
-91 -95 0 
-91 -96 0 
-91 -97 0 
-91 -98 0 
-91 -99 0 
-91 -100 0 
-92 -93 0 
-92 -94 0 
-92 -95 0 
-92 -96 0 
-92 -97 0 
-92 -98 0 
-92 -99 0 
-92 -100 0 
-93 -94 0 
-93 -95 0 
-93 -96 0 
-93 -97 0 
-93 -98 0 
-93 -99 0 
-93 -100 0 
-94 -95 0 
-94 -96 0 
-94 -97 0 
-94 -98 0 
-94 -99 0 
-94 -100 0 
-95 -96 0 
-95 -97 0 
-95 -98 0 
-95 -99 0 
-95 -100 0 
-96 -97 0 
-96 -98 0 
-96 -99 0 
-96 -100 0 
-97 -98 0 
-97 -99 0 
-97 -100 0 
-98 -99 0 
-98 -100 0 
-99 -100 0 
-101 -91 0 
-102 -92 0 
-103 -93 0 
-104 -94 0 
-105 -95 0 
-106 -96 0 
-107 -97 0 
-108 -98 0 
-109 -99 0 
-110 -100 0 
-111 -91 0 
-112 -92 0 
-113 -93 0 
-114 -94 0 
-115 -95 0 
-116 -96 0 
-117 -97 0 
-118 -98 0 
-119 -99 0 
-120 -100 0 
-121 -91 0 
-122 -92 0 
-123 -93 0 
-124 -94 0 
-125 -95 0 
-126 -96 0 
-127 -97 0 
-128 -98 0 
-129 -99 0 
-130 -100 0 
-131 -91 0 
-132 -92 0 
-133 -93 0 
-134 -94 0 
-135 -95 0 
-136 -96 0 
-137 -97 0 
-138 -98 0 
-139 -99 0 
-140 -100 0 
-141 -91 0 
-142 -92 0 
-143 -93 0 
-144 -94 0 
-145 -95 0 
-146 -96 0 
-147 -97 0 
-148 -98 0 
-149 -99 0 
-150 -100 0 
-151 -91 0 
-152 -92 0 
-153 -93 0 
-154 -94 0 
-155 -95 0 
-156 -96 0 
-157 -97 0 
-158 -98 0 
-159 -99 0 
-160 -100 0 
-161 -91 0 
-162 -92 0 
-163 -93 0 
-164 -94 0 
-165 -95 0 
-166 -96 0 
-167 -97 0 
-168 -98 0 
-169 -99 0 
-170 -100 0 
-171 -91 0 
-172 -92 0 
-173 -93 0 
-174 -94 0 
-175 -95 0 
-176 -96 0 
-177 -97 0 
-178 -98 0 
-179 -99 0 
-180 -100 0 
101 102 103 104 105 106 107 108 109 110 0 
-101 -102 0 
-101 -103 0 
-101 -104 0 
-101 -105 0 
-101 -106 0 
-101 -107 0 
-101 -108 0 
-101 -109 0 
-101 -110 0 
-102 -103 0 
-102 -104 0 
-102 -105 0 
-102 -106 0 
-102 -107 0 
-102 -108 0 
-102 -109 0 
-102 -110 0 
-103 -104 0 
-103 -105 0 
-103 -106 0 
-103 -107 0 
-103 -108 0 
-103 -109 0 
-103 -110 0 
-104 -105 0 
-104 -106 0 
-104 -107 0 
-104 -108 0 
-104 -109 0 
-104 -110 0 
-105 -106 0 
-105 -107 0 
-105 -108 0 
-105 -109 0 
-105 -110 0 
-106 -107 0 
-106 -108 0 
-106 -109 0 
-106 -110 0 
-107 -108 0 
-107 -109 0 
-107 -110 0 
-108 -109 0 
-108 -110 0 
-109 -110 0 
-111 -101 0 
-112 -102 0 
-113 -103 0 
-114 -104 0 
-115 -105 0 
-116 -106 0 
-117 -107 0 
-118 -108 0 
-119 -109 0 
-120 -110 0 
-121 -101 0 
-122 -102 0 
-123 -103 0 
-124 -104 0 
-125 -105 0 
-126 -106 0 
-127 -107 0 
-128 -108 0 
-129 -109 0 
-130 -110 0 
-131 -101 0 
-132 -102 0 
-133 -103 0 
-134 -104 0 
-135 -105 0 
-136 -106 0 
-137 -107 0 
-138 -108 0 
-139 -109 0 
-140 -110 0 
-141 -101 0 
-142 -102 0 
-143 -103 0 
-144 -104 0 
-145 -105 0 
-146 -106 0 
-147 -107 0 
-148 -108 0 
-149 -109 0 
-150 -110 0 
-151 -101 0 
-152 -102 0 
-153 -103 0 
-154 -104 0 
-155 -105 0 
-156 -106 0 
-157 -107 0 
-158 -108 0 
-159 -109 0 
-160 -110 0 
-161 -101 0 
-162 -102 0 
-163 -103 0 
-164 -104 0 
-165 -105 0 
-166 -106 0 
-167 -107 0 
-168 -108 0 
-169 -109 0 
-170 -110 0 
-171 -101 0 
-172 -102 0 
-173 -103 0 
-174 -104 0 
-175 -105 0 
-176 -106 0 
-177 -107 0 
-178 -108 0 
-179 -109 0 
-180 -110 0 
111 112 113 114 115 116 117 118 119 120 0 
-111 -112 0 
-111 -113 0 
-111 -114 0 
-111 -115 0 
-111 -116 0 
-111 -117 0 
-111 -118 0 
-111 -119 0 
-111 -120 0 
-112 -113 0 
-112 -114 0 
-112 -115 0 
-112 -116 0 
-112 -117 0 
-112 -118 0 
-112 -119 0 
-112 -120 0 
-113 -114 0 
-113 -115 0 
-113 -116 0 
-113 -117 0 
-113 -118 0 
-113 -119 0 
-113 -120 0 
-114 -115 0 
-114 -116 0 
-114 -117 0 
-114 -118 0 
-114 -119 0 
-114 -120 0 
-115 -116 0 
-115 -117 0 
-115 -118 0 
-115 -119 0 
-115 -120 0 
-116 -117 0 
-116 -118 0 
-116 -119 0 
-116 -120 0 
-117 -118 0 
-117 -119 0 
-117 -120 0 
-118 -119 0 
-118 -120 0 
-119 -120 0 
-121 -111 0 
-122 -112 0 
-123 -113 0 
-124 -114 0 
-125 -115 0 
-126 -116 0 
-127 -117 0 
-128 -118 0 
-129 -119 0 
-130 -120 0 
-131 -111 0 
-132 -112 0 
-133 -113 0 
-134 -114 0 
-135 -115 0 
-136 -116 0 
-137 -117 0 
-138 -118 0 
-139 -119 0 
-140 -120 0 
-141 -111 0 
-142 -112 0 
-143 -113 0 
-144 -114 0 
-145 -115 0 
-146 -116 0 
-147 -117 0 
-148 -118 0 
-149 -119 0 
-150 -120 0 
-151 -111 0 
-152 -112 0 
-153 -113 0 
-154 -114 0 
-155 -115 0 
-156 -116 0 
-157 -117 0 
-158 -118 0 
-159 -119 0 
-160 -120 0 
-161 -111 0 
-162 -112 0 
-163 -113 0 
-164 -114 0 
-165 -115 0 
-166 -116 0 
-167 -117 0 
-168 -118 0 
-169 -119 0 
-170 -120 0 
-171 -111 0 
-172 -112 0 
-173 -113 0 
-174 -114 0 
-175 -115 0 
-176 -116 0 
-177 -117 0 
-178 -118 0 
-179 -119 0 
-180 -120 0 
121 122 123 124 125 126 127 128 129 130 0 
-121 -122 0 
-121 -123 0 
-121 -124 0 
-121 -125 0 
-121 -126 0 
-121 -127 0 
-121 -128 0 
-121 -129 0 
-121 -130 0 
-122 -123 0 
-122 -124 0 
-122 -125 0 
-122 -126 0 
-122 -127 0 
-122 -128 0 
-122 -129 0 
-122 -130 0 
-123 -124 0 
-123 -125 0 
-123 -126 0 
-123 -127 0 
-123 -128 0 
-123 -129 0 
-123 -130 0 
-124 -125 0 
-124 -126 0 
-124 -127 0 
-124 -128 0 
-124 -129 0 
-124 -130 0 
-125 -126 0 
-125 -127 0 
-125 -128 0 
-125 -129 0 
-125 -130 0 
-126 -127 0 
-126 -128 0 
-126 -129 0 
-126 -130 0 
-127 -128 0 
-127 -129 0 
-127 -130 0 
-128 -129 0 
-128 -130 0 
-129 -130 0 
-131 -121 0 
-132 -122 0 
-133 -123 0 
-134 -124 0 
-135 -125 0 
-136 -126 0 
-137 -127 0 
-138 -128 0 
-139 -129 0 
-140 -130 0 
-141 -121 0 
-142 -122 0 
-143 -123 0 
-144 -124 0 
-145 -125 0 
-146 -126 0 
-147 -127 0 
-148 -128 0 
-149 -129 0 
-150 -130 0 
-151 -121 0 
-152 -122 0 
-153 -123 0 
-154 -124 0 
-155 -125 0 
-156 -126 0 
-157 -127 0 
-158 -128 0 
-159 -129 0 
-160 -130 0 
-161 -121 0 
-162 -122 0 
-163 -123 0 
-164 -124 0 
-165 -125 0 
-166 -126 0 
-167 -127 0 
-168 -128 0 
-169 -129 0 
-170 -130 0 
-171 -121 0 
-172 -122 0 
-173 -123 0 
-174 -124 0 
-175 -125 0 
-176 -126 0 
-177 -127 0 
-178 -128 0 
-179 -129 0 
-180 -130 0 
131 132 133 134 135 136 137 138 139 140 0 
-131 -132 0 
-131 -133 0 
-131 -134 0 
-131 -135 0 
-131 -136 0 
-131 -137 0 
-131 -138 0 
-131 -139 0 
-131 -140 0 
-132 -133 0 
-132 -134 0 
-132 -135 0 
-132 -136 0 
-132 -137 0 
-132 -138 0 
-132 -139 0 
-132 -140 0 
-133 -134 0 
-133 -135 0 
-133 -136 0 
-133 -137 0 
-133 -138 0 
-133 -139 0 
-133 -140 0 
-134 -135 0 
-134 -136 0 
-134 -137 0 
-134 -138 0 
-134 -139 0 
-134 -140 0 
-135 -136 0 
-135 -137 0 
-135 -138 0 
-135 -139 0 
-135 -140 0 
-136 -137 0 
-136 -138 0 
-136 -139 0 
-136 -140 0 
-137 -138 0 
-137 -139 0 
-137 -140 0 
-138 -139 0 
-138 -140 0 
-139 -140 0 
-141 -131 0 
-142 -132 0 
-143 -133 0 
-144 -134 0 
-145 -135 0 
-146 -136 0 
-147 -137 0 
-148 -138 0 
-149 -139 0 
-150 -140 0 
-151 -131 0 
-152 -132 0 
-153 -133 0 
-154 -134 0 
-155 -135 0 
-156 -136 0 
-157 -137 0 
-158 -138 0 
-159 -139 0 
-160 -140 0 
-161 -131 0 
-162 -132 0 
-163 -133 0 
-164 -134 0 
-165 -135 0 
-166 -136 0 
-167 -137 0 
-168 -138 0 
-169 -139 0 
-170 -140 0 
-171 -131 0 
-172 -132 0 
-173 -133 0 
-174 -134 0 
-175 -135 0 
-176 -136 0 
-177 -137 0 
-178 -138 0 
-179 -139 0 
-180 -140 0 
141 142 143 144 145 146 147 148 149 150 0 
-141 -142 0 
-141 -143 0 
-141 -144 0 
-141 -145 0 
-141 -146 0 
-141 -147 0 
-141 -148 0 
-141 -149 0 
-141 -150 0 
-142 -143 0 
-142 -144 0 
-142 -145 0 
-142 -146 0 
-142 -147 0 
-142 -148 0 
-142 -149 0 
-142 -150 0 
-143 -144 0 
-143 -145 0 
-143 -146 0 
-143 -147 0 
-143 -148 0 
-143 -149 0 
-143 -150 0 
-144 -145 0 
-144 -146 0 
-144 -147 0 
-144 -148 0 
-144 -149 0 
-144 -150 0 
-145 -146 0 
-145 -147 0 
-145 -148 0 
-145 -149 0 
-145 -150 0 
-146 -147 0 
-146 -148 0 
-146 -149 0 
-146 -150 0 
-147 -148 0 
-147 -149 0 
-147 -150 0 
-148 -149 0 
-148 -150 0 
-149 -150 0 
-151 -141 0 
-152 -142 0 
-153 -143 0 
-154 -144 0 
-155 -145 0 
-156 -146 0 
-157 -147 0 
-158 -148 0 
-159 -149 0 
-160 -150 0 
-161 -141 0 
-162 -142 0 
-163 -143 0 
-164 -144 0 
-165 -145 0 
-166 -146 0 
-167 -147 0 
-168 -148 0 
-169 -149 0 
-170 -150 0 
-171 -141 0 
-172 -142 0 
-173 -143 0 
-174 -144 0 
-175 -145 0 
-176 -146 0 
-177 -147 0 
-178 -148 0 
-179 -149 0 
-180 -150 0 
151 152 153 154 155 156 157 158 159 160 0 
-151 -152 0 
-151 -153 0 
-151 -154 0 
-151 -155 0 
-151 -156 0 
-151 -157 0 
-151 -158 0 
-151 -159 0 
-151 -160 0 
-152 -153 0 
-152 -154 0 
-152 -155 0 
-152 -156 0 
-152 -157 0 
-152 -158 0 
-152 -159 0 
-152 -160 0 
-153 -154 0 
-153 -155 0 
-153 -156 0 
-153 -157 0 
-153 -158 0 
-153 -159 0 
-153 -160 0 
-154 -155 0 
-154 -156 0 
-154 -157 0 
-154 -158 0 
-154 -159 0 
-154 -160 0 
-155 -156 0 
-155 -157 0 
-155 -158 0 
-155 -159 0 
-155 -160 0 
-156 -157 0 
-156 -158 0 
-156 -159 0 
-156 -160 0 
-157 -158 0 
-157 -159 0 
-157 -160 0 
-158 -159 0 
-158 -160 0 
-159 -160 0 
-161 -151 0 
-162 -152 0 
-163 -153 0 
-164 -154 0 
-165 -155 0 
-166 -156 0 
-167 -157 0 
-168 -158 0 
-169 -159 0 
-170 -160 0 
-171 -151 0 
-172 -152 0 
-173 -153 0 
-174 -154 0 
-175 -155 0 
-176 -156 0 
-177 -157 0 
-178 -158 0 
-179 -159 0 
-180 -160 0 
161 162 163 164 165 166 167 168 169 170 0 
-161 -162 0 
-161 -163 0 
-161 -164 0 
-161 -165 0 
-161 -166 0 
-161 -167 0 
-161 -168 0 
-161 -169 0 
-161 -170 0 
-162 -163 0 
-162 -164 0 
-162 -165 0 
-162 -166 0 
-162 -167 0 
-162 -168 0 
-162 -169 0 
-162 -170 0 
-163 -164 0 
-163 -165 0 
-163 -166 0 
-163 -167 0 
-163 -168 0 
-163 -169 0 
-163 -170 0 
-164 -165 0 
-164 -166 0 
-164 -167 0 
-164 -168 0 
-164 -169 0 
-164 -170 0 
-165 -166 0 
-165 -167 0 
-165 -168 0 
-165 -169 0 
-165 -170 0 
-166 -167 0 
-166 -168 0 
-166 -169 0 
-166 -170 0 
-167 -168 0 
-167 -169 0 
-167 -170 0 
-168 -169 0 
-168 -170 0 
-169 -170 0 
-171 -161 0 
-172 -162 0 
-173 -163 0 
-174 -164 0 
-175 -165 0 
-176 -166 0 
-177 -167 0 
-178 -168 0 
-179 -169 0 
-180 -170 0 
171 172 173 174 175 176 177 178 179 180 0 
-171 -172 0 
-171 -173 0 
-171 -174 0 
-171 -175 0 
-171 -176 0 
-171 -177 0 
-171 -178 0 
-171 -179 0 
-171 -180 0 
-172 -173 0 
-172 -174 0 
-172 -175 0 
-172 -176 0 
-172 -177 0 
-172 -178 0 
-172 -179 0 
-172 -180 0 
-173 -174 0 
-173 -175 0 
-173 -176 0 
-173 -177 0 
-173 -178 0 
-173 -179 0 
-173 -180 0 
-174 -175 0 
-174 -176 0 
-174 -177 0 
-174 -178 0 
-174 -179 0 
-174 -180 0 
-175 -176 0 
-175 -177 0 
-175 -178 0 
-175 -179 0 
-175 -180 0 
-176 -177 0 
-176 -178 0 
-176 -179 0 
-176 -180 0 
-177 -178 0 
-177 -179 0 
-177 -180 0 
-178 -179 0 
-178 -180 0 
-179 -180 0 
